20
2 0 10
3 0 5
3 1 7
3 2 5
4 0 10
4 1 1
4 2 2
4 3 3
5 1 8
5 2 6
5 3 8
5 4 3
6 0 8
6 2 2
6 3 9
7 0 8
7 1 2
7 2 6
7 3 4
7 4 5
7 5 9
7 6 1
8 0 6
8 1 5
8 3 6
8 4 8
8 5 4
8 6 9
8 7 4
9 1 6
9 3 5
9 5 4
9 7 3
9 8 1
10 2 10
10 3 9
10 4 8
10 5 8
10 6 7
10 7 10
10 8 7
10 9 4
11 2 8
11 3 10
11 5 7
11 6 9
11 7 4
11 8 1
11 9 5
11 10 3
12 0 10
12 1 10
12 2 3
12 3 8
12 4 2
12 5 6
12 7 8
12 10 7
12 11 7
13 0 7
13 3 9
13 5 3
13 6 7
13 8 8
13 9 1
13 10 9
13 11 1
14 1 9
14 3 2
14 4 10
14 5 2
14 6 1
14 7 3
14 9 2
14 10 5
14 12 6
14 13 1
15 1 8
15 3 9
15 4 2
15 6 9
15 8 6
15 9 2
15 10 7
15 11 8
15 14 10
16 0 6
16 1 2
16 2 4
16 3 5
16 4 3
16 7 9
16 9 3
16 11 8
16 13 6
16 15 6
17 0 10
17 1 6
17 3 5
17 4 6
17 5 10
17 7 10
17 12 6
17 13 3
17 15 8
17 16 10
18 0 2
18 4 5
18 6 10
18 7 10
18 8 1
18 11 4
18 12 2
18 13 1
18 14 2
18 15 6
18 16 3
18 17 5
19 0 7
19 1 3
19 2 6
19 4 5
19 7 6
19 8 3
19 9 4
19 10 9
19 11 5
19 13 4
19 14 4
19 16 2
19 17 5
